n_res = 4;
rc = [ 0, 0, 0, 0 ];
n_tasks = 30;
d = [ 4, 9, 5, 9, 7, 8, 10, 8, 9, 2, 8, 6, 6, 1, 1, 9, 10, 7, 7, 2, 1, 2, 9, 3, 2, 9, 10, 8, 5, 5 ];
rr = [| 0, 0, 0, 0, 0, 0, 0, 0, 0, 0, 0, 0, 0, 0, 0, 0, 0, 0, 0, 0, 0, 0, 0, 0, 0, 0, 0, 0, 0, 0
      | 0, 0, 0, 0, 0, 0, 0, 0, 0, 0, 0, 0, 0, 0, 0, 0, 0, 0, 0, 0, 0, 0, 0, 0, 0, 0, 0, 0, 0, 0
      | 0, 0, 0, 0, 0, 0, 0, 0, 0, 0, 0, 0, 0, 0, 0, 0, 0, 0, 0, 0, 0, 0, 0, 0, 0, 0, 0, 0, 0, 0
      | 0, 0, 0, 0, 0, 0, 0, 0, 0, 0, 0, 0, 0, 0, 0, 0, 0, 0, 0, 0, 0, 0, 0, 0, 0, 0, 0, 0, 0, 0 |];
suc = [ { 5, 6, 8 },
       { 7, 9, 12 },
       { 4, 5 },
       { 6, 8, 29 },
       { 16, 27 },
       { 13, 17, 18 },
       { 24 },
       { 10, 11 },
       { 10, 11 },
       { 15, 23 },
       { 25 },
       { 19 },
       { 14, 15 },
       { 20, 21 },
       { 19, 20, 24 },
       { 18, 20, 29 },
       { 19, 21, 23 },
       { 25 },
       { 27 },
       { 28, 30 },
       { 22, 25 },
       { 26 },
       { 24, 27 },
       { 26 },
       { 26 },
       { 28, 30 },
       { 30 },
       {  },
       {  },
       {  } ];
